param set_len = 26;
param target := 16473237;
set values := 1809949, 1457770, 1189788, 1428707, 648289, 1820134, 1822535, 946004, 1228757, 1632308, 1349860, 679432, 875313, 1040520, 1526406, 1012371, 1190032, 1551346, 732115, 1716123, 1367748, 492141, 826448, 1614506, 363146, 1799517, ;
